param set_len = 42;
param target_sum = 12150502052;
param values := [1] 359863395 [2] 707510394 [3] 621947026 [4] 862949517 [5] 188079060 [6] 747472690 [7] 1064063421 [8] 179953109 [9] 446499536 [10] 1006644945 [11] 212687417 [12] 387363519 [13] 211070236 [14] 544987807 [15] 653240752 [16] 1041379965 [17] 455395971 [18] 2557194 [19] 223521980 [20] 453746215 [21] 383711153 [22] 889483217 [23] 801567316 [24] 287649072 [25] 927590325 [26] 122194093 [27] 633298978 [28] 272493387 [29] 20500547 [30] 22239024 [31] 848893876 [32] 1027442201 [33] 479389017 [34] 876042069 [35] 1052765844 [36] 600269476 [37] 854485839 [38] 373125224 [39] 461127178 [40] 1044496112 [41] 325908794 [42] 576154435 ;
